10 45
1 2 6
1 3 27
1 4 7
1 5 5
1 6 24
1 7 24
1 8 18
1 9 1
1 10 12
2 3 7
2 4 18
2 5 19
2 6 10
2 7 23
2 8 19
2 9 27
2 10 27
3 4 9
3 5 0
3 6 17
3 7 21
3 8 9
3 9 8
3 10 20
4 5 15
4 6 14
4 7 28
4 8 20
4 9 8
4 10 26
5 6 10
5 7 22
5 8 3
5 9 27
5 10 3
6 7 7
6 8 23
6 9 17
6 10 19
7 8 29
7 9 28
7 10 13
8 9 5
8 10 18
9 10 18
